p cnf 1670
-21 -525
-22 -528
-23 -531
-24 -534
-25 -537
-26 -540
-27 -543
-28 -546
-29 -549
-30 -552
-31 -555
-32 -558
-33 -561
-34 -564
-35 -567
-36 -570
-37 -573
-38 -576
-39 -579
-40 -582
-41 583
-42 584
-43 585
-44 586
-45 587
-46 588
-47 589
-48 590
-49 591
-50 592
-51 593
-52 594
-53 595
-54 596
-55 597
-56 598
-57 599
-58 -22
-58 -23
22 23 58
-59 -24
-59 -25
24 25 59
-60 -26
-60 -27
26 27 60
-61 -28
-61 -29
28 29 61
-62 -30
-62 -31
30 31 62
-63 -32
-63 -33
32 33 63
-64 -34
-64 -35
34 35 64
-65 -36
-65 -37
36 37 65
-66 -38
-66 -39
38 39 66
-67 -40
-67 -41
40 41 67
-68 -42
-68 -43
42 43 68
-69 -44
-69 -45
44 45 69
-70 -46
-70 -47
46 47 70
-71 -48
-71 -49
48 49 71
-72 -50
-72 -51
50 51 72
-73 -52
-73 -53
52 53 73
-74 -54
-74 -55
54 55 74
-75 -56
-75 -57
56 57 75
-76 58
-76 59
-58 -59 76
-77 60
-77 61
-60 -61 77
-78 62
-78 63
-62 -63 78
-79 64
-79 65
-64 -65 79
-80 66
-80 67
-66 -67 80
-81 68
-81 69
-68 -69 81
-82 70
-82 71
-70 -71 82
-83 72
-83 73
-72 -73 83
-84 74
-84 75
-74 -75 84
-85 76
-85 77
-76 -77 85
-86 78
-86 79
-78 -79 86
-87 80
-87 81
-80 -81 87
-88 82
-88 83
-82 -83 88
-89 85
-89 86
-85 -86 89
-90 87
-90 88
-87 -88 90
-91 89
-91 90
-89 -90 91
-92 84
-92 91
-84 -91 92
-93 -21
-93 22
21 -22 93
-94 21
-94 -22
-21 22 94
-95 -93
-95 -94
93 94 95
-96 21
-96 22
-21 -22 96
-97 -21
-97 -95
21 95 97
-98 21
-98 95
-21 -95 98
-99 -97
-99 -98
97 98 99
-100 21
-100 -95
-21 95 100
-101 -96
-101 -100
96 100 101
-102 -22
-102 23
22 -23 102
-103 22
-103 -23
-22 23 103
-104 -102
-104 -103
102 103 104
-105 22
-105 23
-22 -23 105
-106 101
-106 -104
-101 104 106
-107 -101
-107 104
101 -104 107
-108 -106
-108 -107
106 107 108
-109 -101
-109 -104
101 104 109
-110 -105
-110 -109
105 109 110
-111 -23
-111 24
23 -24 111
-112 23
-112 -24
-23 24 112
-113 -111
-113 -112
111 112 113
-114 23
-114 24
-23 -24 114
-115 110
-115 -113
-110 113 115
-116 -110
-116 113
110 -113 116
-117 -115
-117 -116
115 116 117
-118 -110
-118 -113
110 113 118
-119 -114
-119 -118
114 118 119
-120 -24
-120 25
24 -25 120
-121 24
-121 -25
-24 25 121
-122 -120
-122 -121
120 121 122
-123 24
-123 25
-24 -25 123
-124 119
-124 -122
-119 122 124
-125 -119
-125 122
119 -122 125
-126 -124
-126 -125
124 125 126
-127 -119
-127 -122
119 122 127
-128 -123
-128 -127
123 127 128
-129 -25
-129 26
25 -26 129
-130 25
-130 -26
-25 26 130
-131 -129
-131 -130
129 130 131
-132 25
-132 26
-25 -26 132
-133 128
-133 -131
-128 131 133
-134 -128
-134 131
128 -131 134
-135 -133
-135 -134
133 134 135
-136 -128
-136 -131
128 131 136
-137 -132
-137 -136
132 136 137
-138 -26
-138 27
26 -27 138
-139 26
-139 -27
-26 27 139
-140 -138
-140 -139
138 139 140
-141 26
-141 27
-26 -27 141
-142 137
-142 -140
-137 140 142
-143 -137
-143 140
137 -140 143
-144 -142
-144 -143
142 143 144
-145 -137
-145 -140
137 140 145
-146 -141
-146 -145
141 145 146
-147 -27
-147 28
27 -28 147
-148 27
-148 -28
-27 28 148
-149 -147
-149 -148
147 148 149
-150 27
-150 28
-27 -28 150
-151 146
-151 -149
-146 149 151
-152 -146
-152 149
146 -149 152
-153 -151
-153 -152
151 152 153
-154 -146
-154 -149
146 149 154
-155 -150
-155 -154
150 154 155
-156 -28
-156 29
28 -29 156
-157 28
-157 -29
-28 29 157
-158 -156
-158 -157
156 157 158
-159 28
-159 29
-28 -29 159
-160 155
-160 -158
-155 158 160
-161 -155
-161 158
155 -158 161
-162 -160
-162 -161
160 161 162
-163 -155
-163 -158
155 158 163
-164 -159
-164 -163
159 163 164
-165 -29
-165 30
29 -30 165
-166 29
-166 -30
-29 30 166
-167 -165
-167 -166
165 166 167
-168 29
-168 30
-29 -30 168
-169 164
-169 -167
-164 167 169
-170 -164
-170 167
164 -167 170
-171 -169
-171 -170
169 170 171
-172 -164
-172 -167
164 167 172
-173 -168
-173 -172
168 172 173
-174 -30
-174 31
30 -31 174
-175 30
-175 -31
-30 31 175
-176 -174
-176 -175
174 175 176
-177 30
-177 31
-30 -31 177
-178 173
-178 -176
-173 176 178
-179 -173
-179 176
173 -176 179
-180 -178
-180 -179
178 179 180
-181 -173
-181 -176
173 176 181
-182 -177
-182 -181
177 181 182
-183 -31
-183 32
31 -32 183
-184 31
-184 -32
-31 32 184
-185 -183
-185 -184
183 184 185
-186 31
-186 32
-31 -32 186
-187 182
-187 -185
-182 185 187
-188 -182
-188 185
182 -185 188
-189 -187
-189 -188
187 188 189
-190 -182
-190 -185
182 185 190
-191 -186
-191 -190
186 190 191
-192 -32
-192 33
32 -33 192
-193 32
-193 -33
-32 33 193
-194 -192
-194 -193
192 193 194
-195 32
-195 33
-32 -33 195
-196 191
-196 -194
-191 194 196
-197 -191
-197 194
191 -194 197
-198 -196
-198 -197
196 197 198
-199 -191
-199 -194
191 194 199
-200 -195
-200 -199
195 199 200
-201 -33
-201 34
33 -34 201
-202 33
-202 -34
-33 34 202
-203 -201
-203 -202
201 202 203
-204 33
-204 34
-33 -34 204
-205 200
-205 -203
-200 203 205
-206 -200
-206 203
200 -203 206
-207 -205
-207 -206
205 206 207
-208 -200
-208 -203
200 203 208
-209 -204
-209 -208
204 208 209
-210 -34
-210 35
34 -35 210
-211 34
-211 -35
-34 35 211
-212 -210
-212 -211
210 211 212
-213 34
-213 35
-34 -35 213
-214 209
-214 -212
-209 212 214
-215 -209
-215 212
209 -212 215
-216 -214
-216 -215
214 215 216
-217 -209
-217 -212
209 212 217
-218 -213
-218 -217
213 217 218
-219 -35
-219 36
35 -36 219
-220 35
-220 -36
-35 36 220
-221 -219
-221 -220
219 220 221
-222 35
-222 36
-35 -36 222
-223 218
-223 -221
-218 221 223
-224 -218
-224 221
218 -221 224
-225 -223
-225 -224
223 224 225
-226 -218
-226 -221
218 221 226
-227 -222
-227 -226
222 226 227
-228 -36
-228 37
36 -37 228
-229 36
-229 -37
-36 37 229
-230 -228
-230 -229
228 229 230
-231 36
-231 37
-36 -37 231
-232 227
-232 -230
-227 230 232
-233 -227
-233 230
227 -230 233
-234 -232
-234 -233
232 233 234
-235 -227
-235 -230
227 230 235
-236 -231
-236 -235
231 235 236
-237 -37
-237 38
37 -38 237
-238 37
-238 -38
-37 38 238
-239 -237
-239 -238
237 238 239
-240 37
-240 38
-37 -38 240
-241 236
-241 -239
-236 239 241
-242 -236
-242 239
236 -239 242
-243 -241
-243 -242
241 242 243
-244 -236
-244 -239
236 239 244
-245 -240
-245 -244
240 244 245
-246 -38
-246 39
38 -39 246
-247 38
-247 -39
-38 39 247
-248 -246
-248 -247
246 247 248
-249 38
-249 39
-38 -39 249
-250 245
-250 -248
-245 248 250
-251 -245
-251 248
245 -248 251
-252 -250
-252 -251
250 251 252
-253 -245
-253 -248
245 248 253
-254 -249
-254 -253
249 253 254
-255 -39
-255 40
39 -40 255
-256 39
-256 -40
-39 40 256
-257 -255
-257 -256
255 256 257
-258 39
-258 40
-39 -40 258
-259 254
-259 -257
-254 257 259
-260 -254
-260 257
254 -257 260
-261 -259
-261 -260
259 260 261
-262 -254
-262 -257
254 257 262
-263 -258
-263 -262
258 262 263
-264 -40
-264 41
40 -41 264
-265 40
-265 -41
-40 41 265
-266 -264
-266 -265
264 265 266
-267 40
-267 41
-40 -41 267
-268 263
-268 -266
-263 266 268
-269 -263
-269 266
263 -266 269
-270 -268
-270 -269
268 269 270
-271 -263
-271 -266
263 266 271
-272 -267
-272 -271
267 271 272
-273 -41
-273 42
41 -42 273
-274 41
-274 -42
-41 42 274
-275 -273
-275 -274
273 274 275
-276 41
-276 42
-41 -42 276
-277 272
-277 -275
-272 275 277
-278 -272
-278 275
272 -275 278
-279 -277
-279 -278
277 278 279
-280 -272
-280 -275
272 275 280
-281 -276
-281 -280
276 280 281
-282 -42
-282 43
42 -43 282
-283 42
-283 -43
-42 43 283
-284 -282
-284 -283
282 283 284
-285 42
-285 43
-42 -43 285
-286 281
-286 -284
-281 284 286
-287 -281
-287 284
281 -284 287
-288 -286
-288 -287
286 287 288
-289 -281
-289 -284
281 284 289
-290 -285
-290 -289
285 289 290
-291 -43
-291 44
43 -44 291
-292 43
-292 -44
-43 44 292
-293 -291
-293 -292
291 292 293
-294 43
-294 44
-43 -44 294
-295 290
-295 -293
-290 293 295
-296 -290
-296 293
290 -293 296
-297 -295
-297 -296
295 296 297
-298 -290
-298 -293
290 293 298
-299 -294
-299 -298
294 298 299
-300 -44
-300 45
44 -45 300
-301 44
-301 -45
-44 45 301
-302 -300
-302 -301
300 301 302
-303 44
-303 45
-44 -45 303
-304 299
-304 -302
-299 302 304
-305 -299
-305 302
299 -302 305
-306 -304
-306 -305
304 305 306
-307 -299
-307 -302
299 302 307
-308 -303
-308 -307
303 307 308
-309 -45
-309 46
45 -46 309
-310 45
-310 -46
-45 46 310
-311 -309
-311 -310
309 310 311
-312 45
-312 46
-45 -46 312
-313 308
-313 -311
-308 311 313
-314 -308
-314 311
308 -311 314
-315 -313
-315 -314
313 314 315
-316 -308
-316 -311
308 311 316
-317 -312
-317 -316
312 316 317
-318 -46
-318 47
46 -47 318
-319 46
-319 -47
-46 47 319
-320 -318
-320 -319
318 319 320
-321 46
-321 47
-46 -47 321
-322 317
-322 -320
-317 320 322
-323 -317
-323 320
317 -320 323
-324 -322
-324 -323
322 323 324
-325 -317
-325 -320
317 320 325
-326 -321
-326 -325
321 325 326
-327 -47
-327 48
47 -48 327
-328 47
-328 -48
-47 48 328
-329 -327
-329 -328
327 328 329
-330 47
-330 48
-47 -48 330
-331 326
-331 -329
-326 329 331
-332 -326
-332 329
326 -329 332
-333 -331
-333 -332
331 332 333
-334 -326
-334 -329
326 329 334
-335 -330
-335 -334
330 334 335
-336 -48
-336 49
48 -49 336
-337 48
-337 -49
-48 49 337
-338 -336
-338 -337
336 337 338
-339 48
-339 49
-48 -49 339
-340 335
-340 -338
-335 338 340
-341 -335
-341 338
335 -338 341
-342 -340
-342 -341
340 341 342
-343 -335
-343 -338
335 338 343
-344 -339
-344 -343
339 343 344
-345 -49
-345 50
49 -50 345
-346 49
-346 -50
-49 50 346
-347 -345
-347 -346
345 346 347
-348 49
-348 50
-49 -50 348
-349 344
-349 -347
-344 347 349
-350 -344
-350 347
344 -347 350
-351 -349
-351 -350
349 350 351
-352 -344
-352 -347
344 347 352
-353 -348
-353 -352
348 352 353
-354 -50
-354 51
50 -51 354
-355 50
-355 -51
-50 51 355
-356 -354
-356 -355
354 355 356
-357 50
-357 51
-50 -51 357
-358 353
-358 -356
-353 356 358
-359 -353
-359 356
353 -356 359
-360 -358
-360 -359
358 359 360
-361 -353
-361 -356
353 356 361
-362 -357
-362 -361
357 361 362
-363 -51
-363 52
51 -52 363
-364 51
-364 -52
-51 52 364
-365 -363
-365 -364
363 364 365
-366 51
-366 52
-51 -52 366
-367 362
-367 -365
-362 365 367
-368 -362
-368 365
362 -365 368
-369 -367
-369 -368
367 368 369
-370 -362
-370 -365
362 365 370
-371 -366
-371 -370
366 370 371
-372 -52
-372 53
52 -53 372
-373 52
-373 -53
-52 53 373
-374 -372
-374 -373
372 373 374
-375 52
-375 53
-52 -53 375
-376 371
-376 -374
-371 374 376
-377 -371
-377 374
371 -374 377
-378 -376
-378 -377
376 377 378
-379 -371
-379 -374
371 374 379
-380 -375
-380 -379
375 379 380
-381 -53
-381 54
53 -54 381
-382 53
-382 -54
-53 54 382
-383 -381
-383 -382
381 382 383
-384 53
-384 54
-53 -54 384
-385 380
-385 -383
-380 383 385
-386 -380
-386 383
380 -383 386
-387 -385
-387 -386
385 386 387
-388 -380
-388 -383
380 383 388
-389 -384
-389 -388
384 388 389
-390 -54
-390 55
54 -55 390
-391 54
-391 -55
-54 55 391
-392 -390
-392 -391
390 391 392
-393 54
-393 55
-54 -55 393
-394 389
-394 -392
-389 392 394
-395 -389
-395 392
389 -392 395
-396 -394
-396 -395
394 395 396
-397 -389
-397 -392
389 392 397
-398 -393
-398 -397
393 397 398
-399 -55
-399 56
55 -56 399
-400 55
-400 -56
-55 56 400
-401 -399
-401 -400
399 400 401
-402 55
-402 56
-55 -56 402
-403 398
-403 -401
-398 401 403
-404 -398
-404 401
398 -401 404
-405 -403
-405 -404
403 404 405
-406 -398
-406 -401
398 401 406
-407 -402
-407 -406
402 406 407
-408 -56
-408 57
56 -57 408
-409 56
-409 -57
-56 57 409
-410 -408
-410 -409
408 409 410
-411 56
-411 57
-56 -57 411
-412 407
-412 -410
-407 410 412
-413 -407
-413 410
407 -410 413
-414 -412
-414 -413
412 413 414
-415 -407
-415 -410
407 410 415
-416 -411
-416 -415
411 415 416
-417 21
-417 -99
-21 99 417
-418 -21
-418 23
21 -23 418
-419 -417
-419 -418
417 418 419
-420 21
-420 -108
-21 108 420
-421 -21
-421 24
21 -24 421
-422 -420
-422 -421
420 421 422
-423 21
-423 -117
-21 117 423
-424 -21
-424 25
21 -25 424
-425 -423
-425 -424
423 424 425
-426 21
-426 -126
-21 126 426
-427 -21
-427 26
21 -26 427
-428 -426
-428 -427
426 427 428
-429 21
-429 -135
-21 135 429
-430 -21
-430 27
21 -27 430
-431 -429
-431 -430
429 430 431
-432 21
-432 -144
-21 144 432
-433 -21
-433 28
21 -28 433
-434 -432
-434 -433
432 433 434
-435 21
-435 -153
-21 153 435
-436 -21
-436 29
21 -29 436
-437 -435
-437 -436
435 436 437
-438 21
-438 -162
-21 162 438
-439 -21
-439 30
21 -30 439
-440 -438
-440 -439
438 439 440
-441 21
-441 -171
-21 171 441
-442 -21
-442 31
21 -31 442
-443 -441
-443 -442
441 442 443
-444 21
-444 -180
-21 180 444
-445 -21
-445 32
21 -32 445
-446 -444
-446 -445
444 445 446
-447 21
-447 -189
-21 189 447
-448 -21
-448 33
21 -33 448
-449 -447
-449 -448
447 448 449
-450 21
-450 -198
-21 198 450
-451 -21
-451 34
21 -34 451
-452 -450
-452 -451
450 451 452
-453 21
-453 -207
-21 207 453
-454 -21
-454 35
21 -35 454
-455 -453
-455 -454
453 454 455
-456 21
-456 -216
-21 216 456
-457 -21
-457 36
21 -36 457
-458 -456
-458 -457
456 457 458
-459 21
-459 -225
-21 225 459
-460 -21
-460 37
21 -37 460
-461 -459
-461 -460
459 460 461
-462 21
-462 -234
-21 234 462
-463 -21
-463 38
21 -38 463
-464 -462
-464 -463
462 463 464
-465 21
-465 -243
-21 243 465
-466 -21
-466 39
21 -39 466
-467 -465
-467 -466
465 466 467
-468 21
-468 -252
-21 252 468
-469 -21
-469 40
21 -40 469
-470 -468
-470 -469
468 469 470
-471 21
-471 -261
-21 261 471
-472 -21
-472 41
21 -41 472
-473 -471
-473 -472
471 472 473
-474 21
-474 -270
-21 270 474
-475 -21
-475 42
21 -42 475
-476 -474
-476 -475
474 475 476
-477 21
-477 -279
-21 279 477
-478 -21
-478 43
21 -43 478
-479 -477
-479 -478
477 478 479
-480 21
-480 -288
-21 288 480
-481 -21
-481 44
21 -44 481
-482 -480
-482 -481
480 481 482
-483 21
-483 -297
-21 297 483
-484 -21
-484 45
21 -45 484
-485 -483
-485 -484
483 484 485
-486 21
-486 -306
-21 306 486
-487 -21
-487 46
21 -46 487
-488 -486
-488 -487
486 487 488
-489 21
-489 -315
-21 315 489
-490 -21
-490 47
21 -47 490
-491 -489
-491 -490
489 490 491
-492 21
-492 -324
-21 324 492
-493 -21
-493 48
21 -48 493
-494 -492
-494 -493
492 493 494
-495 21
-495 -333
-21 333 495
-496 -21
-496 49
21 -49 496
-497 -495
-497 -496
495 496 497
-498 21
-498 -342
-21 342 498
-499 -21
-499 50
21 -50 499
-500 -498
-500 -499
498 499 500
-501 21
-501 -351
-21 351 501
-502 -21
-502 51
21 -51 502
-503 -501
-503 -502
501 502 503
-504 21
-504 -360
-21 360 504
-505 -21
-505 52
21 -52 505
-506 -504
-506 -505
504 505 506
-507 21
-507 -369
-21 369 507
-508 -21
-508 53
21 -53 508
-509 -507
-509 -508
507 508 509
-510 21
-510 -378
-21 378 510
-511 -21
-511 54
21 -54 511
-512 -510
-512 -511
510 511 512
-513 21
-513 -387
-21 387 513
-514 -21
-514 55
21 -55 514
-515 -513
-515 -514
513 514 515
-516 21
-516 -396
-21 396 516
-517 -21
-517 56
21 -56 517
-518 -516
-518 -517
516 517 518
-519 21
-519 -405
-21 405 519
-520 -21
-520 57
21 -57 520
-521 -519
-521 -520
519 520 521
-522 21
-522 -414
-21 414 522
-523 1
-523 92
-1 -92 523
-524 -92
-524 93
92 -93 524
-525 -523
-525 -524
523 524 525
-526 2
-526 92
-2 -92 526
-527 -92
-527 -419
92 419 527
-528 -526
-528 -527
526 527 528
-529 3
-529 92
-3 -92 529
-530 -92
-530 -422
92 422 530
-531 -529
-531 -530
529 530 531
-532 4
-532 92
-4 -92 532
-533 -92
-533 -425
92 425 533
-534 -532
-534 -533
532 533 534
-535 5
-535 92
-5 -92 535
-536 -92
-536 -428
92 428 536
-537 -535
-537 -536
535 536 537
-538 6
-538 92
-6 -92 538
-539 -92
-539 -431
92 431 539
-540 -538
-540 -539
538 539 540
-541 7
-541 92
-7 -92 541
-542 -92
-542 -434
92 434 542
-543 -541
-543 -542
541 542 543
-544 8
-544 92
-8 -92 544
-545 -92
-545 -437
92 437 545
-546 -544
-546 -545
544 545 546
-547 9
-547 92
-9 -92 547
-548 -92
-548 -440
92 440 548
-549 -547
-549 -548
547 548 549
-550 10
-550 92
-10 -92 550
-551 -92
-551 -443
92 443 551
-552 -550
-552 -551
550 551 552
-553 11
-553 92
-11 -92 553
-554 -92
-554 -446
92 446 554
-555 -553
-555 -554
553 554 555
-556 12
-556 92
-12 -92 556
-557 -92
-557 -449
92 449 557
-558 -556
-558 -557
556 557 558
-559 13
-559 92
-13 -92 559
-560 -92
-560 -452
92 452 560
-561 -559
-561 -560
559 560 561
-562 14
-562 92
-14 -92 562
-563 -92
-563 -455
92 455 563
-564 -562
-564 -563
562 563 564
-565 15
-565 92
-15 -92 565
-566 -92
-566 -458
92 458 566
-567 -565
-567 -566
565 566 567
-568 16
-568 92
-16 -92 568
-569 -92
-569 -461
92 461 569
-570 -568
-570 -569
568 569 570
-571 17
-571 92
-17 -92 571
-572 -92
-572 -464
92 464 572
-573 -571
-573 -572
571 572 573
-574 18
-574 92
-18 -92 574
-575 -92
-575 -467
92 467 575
-576 -574
-576 -575
574 575 576
-577 19
-577 92
-19 -92 577
-578 -92
-578 -470
92 470 578
-579 -577
-579 -578
577 578 579
-580 20
-580 92
-20 -92 580
-581 -92
-581 -473
92 473 581
-582 -580
-582 -581
580 581 582
-583 -92
-583 -476
92 476 583
-584 -92
-584 -479
92 479 584
-585 -92
-585 -482
92 482 585
-586 -92
-586 -485
92 485 586
-587 -92
-587 -488
92 488 587
-588 -92
-588 -491
92 491 588
-589 -92
-589 -494
92 494 589
-590 -92
-590 -497
92 497 590
-591 -92
-591 -500
92 500 591
-592 -92
-592 -503
92 503 592
-593 -92
-593 -506
92 506 593
-594 -92
-594 -509
92 509 594
-595 -92
-595 -512
92 512 595
-596 -92
-596 -515
92 515 596
-597 -92
-597 -518
92 518 597
-598 -92
-598 -521
92 521 598
-599 -92
-599 522
92 -522 599
-600 -57
-600 416
57 -416 600
-601 21
-601 -600
-21 600 601
601
